DIMENSION: 5
NODE_COORD_SECTION
1 236.7706919946 -483.7528604119
2 848.9451476793 316.4898746384
3 -7624.3243243243 -148.7963565387
4 -72.0830788027 -3794.5945945946
5 -30.1675977654 -1610.9489051095
EOF